Set parameter TokenServer to value "hpc-licenses.hpcc.usc.edu"
Set parameter TimeLimit to value 3600
Gurobi Optimizer version 9.5.1 build v9.5.1rc2 (linux64)
Thread count: 20 physical cores, 20 logical processors, using up to 20 threads
Optimize a model with 14014 rows, 10581 columns and 61098 nonzeros
Model fingerprint: 0x8403f0ef
Variable types: 10514 continuous, 67 integer (67 binary)
Coefficient statistics:
  Matrix range     [1e+00, 1e+00]
  Objective range  [9e-04, 1e+00]
  Bounds range     [1e+00, 1e+00]
  RHS range        [1e+00, 1e+00]
Presolve removed 3086 rows and 3065 columns
Presolve time: 0.21s
Presolved: 10928 rows, 7516 columns, 56261 nonzeros
Variable types: 7456 continuous, 60 integer (60 binary)
Found heuristic solution: objective 274.4058495
Found heuristic solution: objective 276.4042688
Found heuristic solution: objective 277.0404339

Root relaxation: objective 2.819084e+02, 2763 iterations, 0.13 seconds (0.19 work units)

    Nodes    |    Current Node    |     Objective Bounds      |     Work
 Expl Unexpl |  Obj  Depth IntInf | Incumbent    BestBd   Gap | It/Node Time

     0     0  281.90843    0    4  277.04043  281.90843  1.76%     -    0s
     0     0  281.90843    0    9  277.04043  281.90843  1.76%     -    0s
H    0     0                     277.1609108  281.90843  1.71%     -    1s
     0     0  281.90843    0    7  277.16091  281.90843  1.71%     -    1s
     0     0  281.90843    0    7  277.16091  281.90843  1.71%     -    1s
     0     0  281.90843    0    7  277.16091  281.90843  1.71%     -    1s
     0     0  281.90843    0    7  277.16091  281.90843  1.71%     -    1s
     0     0  281.90655    0    7  277.16091  281.90655  1.71%     -    1s
     0     0  281.82419    0    7  277.16091  281.82419  1.68%     -    2s
     0     0  281.79594    0    7  277.16091  281.79594  1.67%     -    2s
     0     2  281.79594    0    7  277.16091  281.79594  1.67%     -    2s
*   22    16               4     278.2335774  281.79594  1.28%   557    4s
H   39    30                     278.4507617  281.79594  1.20%   432    5s
*   46    30               6     279.1329388  281.79594  0.95%   406    5s
H  101    32                     279.2685978  281.79594  0.90%   290    8s
*  122    30              11     279.5867944  281.79594  0.79%   268    8s
   196    27  280.94116   12    6  279.58679  281.54447  0.70%   245   10s
*  218    27              13     279.7345793  281.54209  0.65%   239   10s
H  248    28                     279.7999920  281.48537  0.60%   235   11s
*  295    24              15     280.0874998  281.32152  0.44%   229   11s
*  327    18              16     280.1395567  281.17508  0.37%   222   11s
H  371    14                     280.2093790  281.08819  0.31%   222   12s

Cutting planes:
  Gomory: 1
  MIR: 2
  Flow cover: 3
  RLT: 7

Explored 437 nodes (100077 simplex iterations) in 14.04 seconds (3.92 work units)
Thread count was 20 (of 20 available processors)

Solution count 10: 280.209 280.14 280.087 ... 278.234

Optimal solution found (tolerance 1.00e-04)
Best objective 2.802093790203e+02, best bound 2.802324847088e+02, gap 0.0082%



#########node  1
V2.7
#########node  2
V1.5
#########node  3
V1.2
#########node  4
0.0,1.0
#########node  5
1.0,0.0
#########node  6
0.0,1.0
#########node  7
1.0,0.0


Total Solving Time 14.939414739608765
obj value 280.20937902032597
Policy Regret train (Sum) 1.172996497033545
Best Treatment Found train (%) 87.4
treatment classification acc train (%) 49.0
Policy Regret test (Sum) 67.90574040222246
Best Treatment Found test (%) 71.7
treatment classification acc test (%) 49.93
Set parameter TokenServer to value "hpc-licenses.hpcc.usc.edu"
Set parameter TimeLimit to value 3600
Gurobi Optimizer version 9.5.1 build v9.5.1rc2 (linux64)
Thread count: 20 physical cores, 20 logical processors, using up to 20 threads
Optimize a model with 14014 rows, 10581 columns and 61098 nonzeros
Model fingerprint: 0x8403f0ef
Variable types: 10514 continuous, 67 integer (67 binary)
Coefficient statistics:
  Matrix range     [1e+00, 1e+00]
  Objective range  [9e-04, 1e+00]
  Bounds range     [1e+00, 1e+00]
  RHS range        [1e+00, 1e+00]
Presolve removed 3086 rows and 3065 columns
Presolve time: 0.28s
Presolved: 10928 rows, 7516 columns, 56261 nonzeros
Variable types: 7456 continuous, 60 integer (60 binary)
Found heuristic solution: objective 274.4058495
Found heuristic solution: objective 276.4042688
Found heuristic solution: objective 277.0404339

Root relaxation: objective 2.819084e+02, 2763 iterations, 0.11 seconds (0.19 work units)

    Nodes    |    Current Node    |     Objective Bounds      |     Work
 Expl Unexpl |  Obj  Depth IntInf | Incumbent    BestBd   Gap | It/Node Time

     0     0  281.90843    0    4  277.04043  281.90843  1.76%     -    0s
     0     0  281.90843    0    9  277.04043  281.90843  1.76%     -    1s
H    0     0                     277.1609108  281.90843  1.71%     -    1s
     0     0  281.90843    0    7  277.16091  281.90843  1.71%     -    1s
     0     0  281.90843    0    7  277.16091  281.90843  1.71%     -    1s
     0     0  281.90843    0    7  277.16091  281.90843  1.71%     -    1s
     0     0  281.90843    0    7  277.16091  281.90843  1.71%     -    1s
     0     0  281.90655    0    7  277.16091  281.90655  1.71%     -    1s
     0     0  281.82419    0    7  277.16091  281.82419  1.68%     -    2s
     0     0  281.79594    0    7  277.16091  281.79594  1.67%     -    2s
     0     2  281.79594    0    7  277.16091  281.79594  1.67%     -    2s
*   22    16               4     278.2335774  281.79594  1.28%   557    4s
H   39    30                     278.4507617  281.79594  1.20%   432    5s
*   46    30               6     279.1329388  281.79594  0.95%   406    5s
H  101    32                     279.2685978  281.79594  0.90%   290    7s
*  122    30              11     279.5867944  281.79594  0.79%   268    8s
*  218    27              13     279.7345793  281.54209  0.65%   239    9s
H  248    28                     279.7999920  281.48537  0.60%   235   10s
*  295    24              15     280.0874998  281.32152  0.44%   229   10s
*  327    18              16     280.1395567  281.17508  0.37%   222   10s
H  371    14                     280.2093790  281.08819  0.31%   222   11s

Cutting planes:
  Gomory: 1
  MIR: 2
  Flow cover: 3
  RLT: 7

Explored 437 nodes (100077 simplex iterations) in 13.11 seconds (3.92 work units)
Thread count was 20 (of 20 available processors)

Solution count 10: 280.209 280.14 280.087 ... 278.234

Optimal solution found (tolerance 1.00e-04)
Best objective 2.802093790203e+02, best bound 2.802324847088e+02, gap 0.0082%



#########node  1
V2.7
#########node  2
V1.5
#########node  3
V1.2
#########node  4
0.0,1.0
#########node  5
1.0,0.0
#########node  6
0.0,1.0
#########node  7
1.0,0.0


Total Solving Time 14.05324411392212
obj value 280.20937902032597
Policy Regret train (Sum) 1.172996497033545
Best Treatment Found train (%) 87.4
treatment classification acc train (%) 49.0
Policy Regret test (Sum) 67.90574040222246
Best Treatment Found test (%) 71.7
treatment classification acc test (%) 49.93
